(set-info :smt-lib-version 2.6)
(set-logic QF_S)
(set-info :source |
Generated by: Hung-En Wang, Tzung-Lin Tsai, Chun-Han Lin, Fang Yu, and Jie-Hong R. Jiang
Generated on: 2019-02-28
Generator: Stranger
Application: Security analysis of string manipulating web applications
Target solver: CVC4, Norn, Z3-str2
Publication:
Hung-En Wang, Tzung-Lin Tsai, Chun-Han Lin, Fang Yu, Jie-Hong R. Jiang:
String Analysis via Automata Manipulation with Logic Circuit Representation. CAV (1) 2016: 241-260.
|)
(set-info :license "https://creativecommons.org/licenses/by/4.0/")
(set-info :category "industrial")
(set-info :status unknown)

(declare-fun sigmaStar_0 () String)
(declare-fun sigmaStar_1 () String)
(declare-fun sigmaStar_2 () String)
(declare-fun sigmaStar_3 () String)
(declare-fun sigmaStar_4 () String)
(declare-fun sigmaStar_5 () String)
(declare-fun sigmaStar_6 () String)
(declare-fun sigmaStar_7 () String)
(declare-fun sigmaStar_8 () String)
(declare-fun sigmaStar_9 () String)
(declare-fun sigmaStar_10 () String)
(declare-fun sigmaStar_11 () String)
(declare-fun sigmaStar_12 () String)
(declare-fun sigmaStar_13 () String)
(declare-fun sigmaStar_17 () String)
(declare-fun literal_16 () String)
(declare-fun x_15 () String)
(declare-fun literal_14 () String)
(declare-fun x_18 () String)
(declare-fun literal_19 () String)
(declare-fun x_21 () String)
(declare-fun literal_20 () String)
(declare-fun x_22 () String)
(declare-fun x_25 () String)
(declare-fun literal_23 () String)
(declare-fun x_26 () String)
(declare-fun literal_24 () String)
(declare-fun x_27 () String)
(declare-fun x_28 () String)
(declare-fun x_29 () String)
(declare-fun x_30 () String)
(declare-fun literal_31 () String)
(declare-fun x_32 () String)
(declare-fun x_33 () String)
(declare-fun x_34 () String)
(declare-fun literal_35 () String)
(declare-fun x_36 () String)
(declare-fun x_37 () String)
(declare-fun literal_38 () String)
(declare-fun x_39 () String)
(declare-fun x_40 () String)
(declare-fun literal_41 () String)
(declare-fun x_42 () String)
(declare-fun x_43 () String)
(declare-fun literal_44 () String)
(declare-fun x_45 () String)
(declare-fun x_46 () String)
(declare-fun literal_47 () String)
(declare-fun x_48 () String)
(declare-fun x_49 () String)
(declare-fun literal_50 () String)
(declare-fun x_51 () String)
(declare-fun x_52 () String)
(declare-fun literal_53 () String)
(declare-fun x_54 () String)
(declare-fun x_55 () String)
(declare-fun literal_56 () String)
(declare-fun x_57 () String)
(assert (= literal_16 "\u{3f}\u{73}\u{74}\u{65}\u{70}\u{3d}\u{31}\u{26}\u{6c}\u{6f}\u{63}\u{61}\u{6c}\u{65}\u{73}\u{65}\u{74}\u{3d}"))
(assert (= literal_14 "\u{45}\u{6e}\u{67}\u{6c}\u{69}\u{73}\u{68}"))
(assert (or (= x_15 sigmaStar_11) (= x_15 literal_14)))
(assert (= x_18 (str.++ literal_16 x_15)))
(assert (= literal_19 "\u{3e}\u{0d}\u{0a}\u{3c}\u{74}\u{72}\u{3e}\u{3c}\u{74}\u{64}\u{20}\u{61}\u{6c}\u{69}\u{67}\u{6e}\u{3d}\u{63}\u{65}\u{6e}\u{74}\u{65}\u{72}\u{27}\u{20}\u{63}\u{6f}\u{6c}\u{73}\u{70}\u{61}\u{6e}\u{3d}\u{27}\u{32}\u{27}\u{20}\u{63}\u{6c}\u{61}\u{73}\u{73}\u{3d}\u{27}\u{74}\u{62}\u{6c}\u{31}\u{27}\u{3e}\u{3c}\u{62}\u{3e}"))
(assert (= x_21 (str.++ x_18 literal_19)))
(assert (= literal_20 "\u{3c}\u{66}\u{6f}\u{72}\u{6d}\u{20}\u{6e}\u{61}\u{6d}\u{65}\u{3d}\u{27}\u{73}\u{65}\u{74}\u{75}\u{70}\u{27}\u{20}\u{6d}\u{65}\u{74}\u{68}\u{6f}\u{64}\u{3d}\u{27}\u{70}\u{6f}\u{73}\u{74}\u{27}\u{20}\u{61}\u{63}\u{74}\u{69}\u{6f}\u{6e}\u{3d}\u{27}"))
(assert (= x_22 (str.++ literal_20 sigmaStar_17)))
(assert (= x_25 (str.++ x_22 x_21)))
(assert (= literal_23 "\u{3c}\u{62}\u{72}\u{3e}\u{3c}\u{62}\u{72}\u{3e}\u{5c}\u{6e}"))
(assert (= x_26 (str.++ sigmaStar_7 literal_23)))
(assert (= literal_24 "\u{3c}\u{62}\u{72}\u{3e}\u{3c}\u{62}\u{72}\u{3e}\u{5c}\u{6e}"))
(assert (= x_27 (str.++ sigmaStar_3 literal_24)))
(assert (= x_28 (str.++ x_25 sigmaStar_4)))
(assert (= x_29 (str.++ x_26 sigmaStar_6)))
(assert (= x_30 (str.++ x_27 sigmaStar_5)))
(assert (= literal_31 "\u{3c}\u{2f}\u{62}\u{3e}\u{3c}\u{62}\u{72}\u{3e}\u{3c}\u{62}\u{72}\u{3e}\u{0d}\u{0a}"))
(assert (= x_32 (str.++ x_28 literal_31)))
(assert (or (= x_33 x_30) (= x_33 x_29)))
(assert (= x_34 (str.++ x_32 x_33)))
(assert (= literal_35 "\u{3c}\u{2f}\u{74}\u{64}\u{3e}\u{3c}\u{2f}\u{74}\u{72}\u{3e}\u{0d}\u{0a}\u{3c}\u{74}\u{72}\u{3e}\u{3c}\u{74}\u{64}\u{20}\u{61}\u{6c}\u{69}\u{67}\u{6e}\u{3d}\u{27}\u{63}\u{65}\u{6e}\u{74}\u{65}\u{72}\u{27}\u{20}\u{63}\u{6f}\u{6c}\u{73}\u{70}\u{61}\u{6e}\u{3d}\u{27}\u{32}\u{27}\u{20}\u{63}\u{6c}\u{61}\u{73}\u{73}\u{3d}\u{27}\u{74}\u{62}\u{6c}\u{32}\u{27}\u{3e}\u{3c}\u{62}\u{3e}"))
(assert (= x_36 (str.++ x_34 literal_35)))
(assert (= x_37 (str.++ x_36 sigmaStar_0)))
(assert (= literal_38 "\u{3c}\u{2f}\u{62}\u{3e}\u{3c}\u{2f}\u{74}\u{64}\u{3e}\u{3c}\u{2f}\u{74}\u{72}\u{3e}\u{0d}\u{0a}\u{3c}\u{74}\u{72}\u{3e}\u{3c}\u{74}\u{64}\u{20}\u{61}\u{6c}\u{69}\u{67}\u{6e}\u{3d}\u{27}\u{72}\u{69}\u{67}\u{68}\u{74}\u{27}\u{20}\u{63}\u{6c}\u{61}\u{73}\u{73}\u{3d}\u{27}\u{74}\u{62}\u{6c}\u{31}\u{27}\u{3e}"))
(assert (= x_39 (str.++ x_37 literal_38)))
(assert (= x_40 (str.++ x_39 sigmaStar_9)))
(assert (= literal_41 "\u{3c}\u{2f}\u{74}\u{64}\u{3e}\u{3c}\u{74}\u{64}\u{20}\u{63}\u{6c}\u{61}\u{73}\u{73}\u{3d}\u{27}\u{74}\u{62}\u{6c}\u{31}\u{27}\u{3e}\u{3c}\u{69}\u{6e}\u{70}\u{75}\u{74}\u{20}\u{74}\u{79}\u{70}\u{65}\u{3d}\u{27}\u{74}\u{65}\u{78}\u{74}\u{27}\u{20}\u{76}\u{61}\u{6c}\u{75}\u{65}\u{3d}\u{27}\u{6c}\u{6f}\u{63}\u{61}\u{6c}\u{68}\u{6f}\u{73}\u{74}\u{27}\u{20}\u{6e}\u{61}\u{6d}\u{65}\u{3d}\u{27}\u{64}\u{62}\u{5f}\u{68}\u{6f}\u{73}\u{74}\u{27}\u{20}\u{63}\u{6c}\u{61}\u{73}\u{73}\u{3d}\u{27}\u{74}\u{65}\u{78}\u{74}\u{62}\u{6f}\u{78}\u{27}\u{3e}\u{3c}\u{2f}\u{74}\u{64}\u{3e}\u{3c}\u{2f}\u{74}\u{72}\u{3e}\u{0d}\u{0a}\u{3c}\u{74}\u{72}\u{3e}\u{3c}\u{74}\u{64}\u{20}\u{61}\u{6c}\u{69}\u{67}\u{6e}\u{3d}\u{27}\u{72}\u{69}\u{67}\u{68}\u{74}\u{27}\u{20}\u{63}\u{6c}\u{61}\u{73}\u{73}\u{3d}\u{27}\u{74}\u{62}\u{6c}\u{31}\u{27}\u{3e}"))
(assert (= x_42 (str.++ x_40 literal_41)))
(assert (= x_43 (str.++ x_42 sigmaStar_1)))
(assert (= literal_44 "\u{3c}\u{2f}\u{74}\u{64}\u{3e}\u{3c}\u{74}\u{64}\u{20}\u{63}\u{6c}\u{61}\u{73}\u{73}\u{3d}\u{27}\u{74}\u{62}\u{6c}\u{31}\u{27}\u{3e}\u{3c}\u{69}\u{6e}\u{70}\u{75}\u{74}\u{20}\u{74}\u{79}\u{70}\u{65}\u{3d}\u{27}\u{74}\u{65}\u{78}\u{74}\u{27}\u{20}\u{76}\u{61}\u{6c}\u{75}\u{65}\u{3d}\u{27}\u{27}\u{20}\u{6e}\u{61}\u{6d}\u{65}\u{3d}\u{27}\u{64}\u{62}\u{5f}\u{75}\u{73}\u{65}\u{72}\u{27}\u{20}\u{63}\u{6c}\u{61}\u{73}\u{73}\u{3d}\u{27}\u{74}\u{65}\u{78}\u{74}\u{62}\u{6f}\u{78}\u{27}\u{3e}\u{3c}\u{2f}\u{74}\u{64}\u{3e}\u{3c}\u{2f}\u{74}\u{72}\u{3e}\u{0d}\u{0a}\u{3c}\u{74}\u{72}\u{3e}\u{3c}\u{74}\u{64}\u{20}\u{61}\u{6c}\u{69}\u{67}\u{6e}\u{3d}\u{27}\u{72}\u{69}\u{67}\u{68}\u{74}\u{27}\u{20}\u{63}\u{6c}\u{61}\u{73}\u{73}\u{3d}\u{27}\u{74}\u{62}\u{6c}\u{31}\u{27}\u{3e}"))
(assert (= x_45 (str.++ x_43 literal_44)))
(assert (= x_46 (str.++ x_45 sigmaStar_12)))
(assert (= literal_47 "\u{3c}\u{2f}\u{74}\u{64}\u{3e}\u{3c}\u{74}\u{64}\u{20}\u{63}\u{6c}\u{61}\u{73}\u{73}\u{3d}\u{27}\u{74}\u{62}\u{6c}\u{31}\u{27}\u{3e}\u{3c}\u{69}\u{6e}\u{70}\u{75}\u{74}\u{20}\u{74}\u{79}\u{70}\u{65}\u{3d}\u{27}\u{70}\u{61}\u{73}\u{73}\u{77}\u{6f}\u{72}\u{64}\u{27}\u{20}\u{76}\u{61}\u{6c}\u{75}\u{65}\u{3d}\u{27}\u{27}\u{20}\u{6e}\u{61}\u{6d}\u{65}\u{3d}\u{27}\u{64}\u{62}\u{5f}\u{70}\u{61}\u{73}\u{73}\u{27}\u{20}\u{63}\u{6c}\u{61}\u{73}\u{73}\u{3d}\u{27}\u{74}\u{65}\u{78}\u{74}\u{62}\u{6f}\u{78}\u{27}\u{3e}\u{3c}\u{2f}\u{74}\u{64}\u{3e}\u{3c}\u{2f}\u{74}\u{72}\u{3e}\u{0d}\u{0a}\u{3c}\u{74}\u{72}\u{3e}\u{3c}\u{74}\u{64}\u{20}\u{61}\u{6c}\u{69}\u{67}\u{6e}\u{3d}\u{27}\u{72}\u{69}\u{67}\u{68}\u{74}\u{27}\u{20}\u{63}\u{6c}\u{61}\u{73}\u{73}\u{3d}\u{27}\u{74}\u{62}\u{6c}\u{31}\u{27}\u{3e}"))
(assert (= x_48 (str.++ x_46 literal_47)))
(assert (= x_49 (str.++ x_48 sigmaStar_8)))
(assert (= literal_50 "\u{3c}\u{2f}\u{74}\u{64}\u{3e}\u{3c}\u{74}\u{64}\u{20}\u{63}\u{6c}\u{61}\u{73}\u{73}\u{3d}\u{27}\u{74}\u{62}\u{6c}\u{31}\u{27}\u{3e}\u{3c}\u{69}\u{6e}\u{70}\u{75}\u{74}\u{20}\u{74}\u{79}\u{70}\u{65}\u{3d}\u{27}\u{74}\u{65}\u{78}\u{74}\u{27}\u{20}\u{76}\u{61}\u{6c}\u{75}\u{65}\u{3d}\u{27}\u{27}\u{20}\u{6e}\u{61}\u{6d}\u{65}\u{3d}\u{27}\u{64}\u{62}\u{5f}\u{6e}\u{61}\u{6d}\u{65}\u{27}\u{20}\u{63}\u{6c}\u{61}\u{73}\u{73}\u{3d}\u{27}\u{74}\u{65}\u{78}\u{74}\u{62}\u{6f}\u{78}\u{27}\u{3e}\u{3c}\u{2f}\u{74}\u{64}\u{3e}\u{3c}\u{2f}\u{74}\u{72}\u{3e}\u{0d}\u{0a}\u{3c}\u{74}\u{72}\u{3e}\u{3c}\u{74}\u{64}\u{20}\u{61}\u{6c}\u{69}\u{67}\u{6e}\u{3d}\u{27}\u{72}\u{69}\u{67}\u{68}\u{74}\u{27}\u{20}\u{63}\u{6c}\u{61}\u{73}\u{73}\u{3d}\u{27}\u{74}\u{62}\u{6c}\u{31}\u{27}\u{3e}"))
(assert (= x_51 (str.++ x_49 literal_50)))
(assert (= x_52 (str.++ x_51 sigmaStar_2)))
(assert (= literal_53 "\u{3c}\u{2f}\u{74}\u{64}\u{3e}\u{3c}\u{74}\u{64}\u{20}\u{63}\u{6c}\u{61}\u{73}\u{73}\u{3d}\u{27}\u{74}\u{62}\u{6c}\u{31}\u{27}\u{3e}\u{3c}\u{69}\u{6e}\u{70}\u{75}\u{74}\u{20}\u{74}\u{79}\u{70}\u{65}\u{3d}\u{27}\u{74}\u{65}\u{78}\u{74}\u{27}\u{20}\u{76}\u{61}\u{6c}\u{75}\u{65}\u{3d}\u{27}\u{66}\u{75}\u{73}\u{69}\u{6f}\u{6e}\u{5f}\u{27}\u{20}\u{6e}\u{61}\u{6d}\u{65}\u{3d}\u{27}\u{64}\u{62}\u{5f}\u{70}\u{72}\u{65}\u{66}\u{69}\u{78}\u{27}\u{20}\u{63}\u{6c}\u{61}\u{73}\u{73}\u{3d}\u{27}\u{74}\u{65}\u{78}\u{74}\u{62}\u{6f}\u{78}\u{27}\u{3e}\u{3c}\u{2f}\u{74}\u{64}\u{3e}\u{3c}\u{2f}\u{74}\u{72}\u{3e}\u{0d}\u{0a}\u{3c}\u{74}\u{72}\u{3e}\u{3c}\u{74}\u{64}\u{20}\u{61}\u{6c}\u{69}\u{67}\u{6e}\u{3d}\u{27}\u{63}\u{65}\u{6e}\u{74}\u{65}\u{72}\u{27}\u{20}\u{63}\u{6f}\u{6c}\u{73}\u{70}\u{61}\u{6e}\u{3d}\u{27}\u{32}\u{27}\u{20}\u{63}\u{6c}\u{61}\u{73}\u{73}\u{3d}\u{27}\u{74}\u{62}\u{6c}\u{31}\u{27}\u{3e}\u{3c}\u{69}\u{6e}\u{70}\u{75}\u{74}\u{20}\u{74}\u{79}\u{70}\u{65}\u{3d}\u{27}\u{73}\u{75}\u{62}\u{6d}\u{69}\u{74}\u{27}\u{20}\u{6e}\u{61}\u{6d}\u{65}\u{3d}\u{27}\u{6e}\u{65}\u{78}\u{74}\u{27}\u{20}\u{76}\u{61}\u{6c}\u{75}\u{65}\u{3d}\u{27}"))
(assert (= x_54 (str.++ x_52 literal_53)))
(assert (= x_55 (str.++ x_54 sigmaStar_13)))
(assert (= literal_56 "\u{27}\u{20}\u{63}\u{6c}\u{61}\u{73}\u{73}\u{3d}\u{27}\u{62}\u{75}\u{74}\u{74}\u{6f}\u{6e}\u{27}\u{3e}\u{3c}\u{2f}\u{74}\u{64}\u{3e}\u{3c}\u{2f}\u{74}\u{72}\u{3e}\u{0d}\u{0a}\u{3c}\u{2f}\u{66}\u{6f}\u{72}\u{6d}\u{3e}\u{5c}\u{6e}\u{3c}\u{2f}\u{74}\u{64}\u{3e}\u{5c}\u{6e}\u{3c}\u{2f}\u{74}\u{72}\u{3e}"))
(assert (= x_57 (str.++ x_55 literal_56)))
(assert (str.in_re x_57 (re.++ (re.* re.allchar) (re.++ (str.to_re "\u{5c}\u{3c}\u{53}\u{43}\u{52}\u{49}\u{50}\u{54}") (re.* re.allchar)))))
(check-sat)
(exit)
